23
10
1 22 14 19 6 13
16 0 13 18 9 6 5 3 15 11 20 19 7 10 1 4 2 21 22 12 17 14 8
20 12 10 3 19 13 11 1 15 17 16 8 18
2 10 7 8 5 16 18 14 1 13 6 11 0 3 12 21 17
22 18 2 19 20 15 1 9 17
1 20 15 4 13 17 10 8
21 6 11 2 10 0 12 20 18 22 4 14
19 18 11 5 6 2 3 22
16 15 13 4 10 9 5 22 14 19 21 7 20
22 12 19 13 1 0 7 8 18 21 9 4 2 20 14 5 11 15 16 6 3
